WARNING: for repeatability, setting FPU to use double precision
============================[ Problem Statistics ]=============================
|                                                                             |
|  Number of variables:            50                                         |
|  Number of clauses:             218                                         |
|  Parse time:                   0.00 s                                       |
|                                                                             |
============================[ Search Statistics ]==============================
| Conflicts |          ORIGINAL         |          LEARNT          | Progress |
|           |    Vars  Clauses Literals |    Limit  Clauses Lit/Cl |          |
===============================================================================
===============================================================================
restarts              : 1
conflicts             : 91             (54655 /sec)
decisions             : 100            (0.00 % random) (60060 /sec)
propagations          : 1314           (789189 /sec)
conflict literals     : 347            (21.14 % deleted)
Memory used           : 20.00 MB
CPU time              : 0.001665 s

UNSATISFIABLE
